(define-fun |cond.ILA.r0| ((|__START__| (_ BitVec 1))) Bool (not (= |__START__| #b0)))
(define-fun |value.ILA.r0| ((|__START__| (_ BitVec 1)) (|__auxvar4__recorder| (_ BitVec 8)) (|__ILA_SO_r0| (_ BitVec 8)) (|RTL__DOT__registers_0_| (_ BitVec 8))) (_ BitVec 1) (ite (not (= |__START__| #b0)) (ite (= |__ILA_SO_r0| |__auxvar4__recorder|) #b1 #b0) (ite (not (= #b1 #b0)) (ite (= |__ILA_SO_r0| |RTL__DOT__registers_0_|) #b1 #b0) #b1)))
(define-fun |cond.ILA.r1| ((|__START__| (_ BitVec 1))) Bool (not (= |__START__| #b0)))
(define-fun |value.ILA.r1| ((|__START__| (_ BitVec 1)) (|__auxvar5__recorder| (_ BitVec 8)) (|__ILA_SO_r1| (_ BitVec 8)) (|RTL__DOT__registers_1_| (_ BitVec 8))) (_ BitVec 1) (ite (not (= |__START__| #b0)) (ite (= |__ILA_SO_r1| |__auxvar5__recorder|) #b1 #b0) (ite (not (= #b1 #b0)) (ite (= |__ILA_SO_r1| |RTL__DOT__registers_1_|) #b1 #b0) #b1)))
(define-fun |cond.ILA.r2| ((|__START__| (_ BitVec 1))) Bool (not (= |__START__| #b0)))
(define-fun |value.ILA.r2| ((|__auxvar6__recorder| (_ BitVec 8)) (|__START__| (_ BitVec 1)) (|__ILA_SO_r2| (_ BitVec 8)) (|RTL__DOT__registers_2_| (_ BitVec 8))) (_ BitVec 1) (ite (not (= |__START__| #b0)) (ite (= |__ILA_SO_r2| |__auxvar6__recorder|) #b1 #b0) (ite (not (= #b1 #b0)) (ite (= |__ILA_SO_r2| |RTL__DOT__registers_2_|) #b1 #b0) #b1)))
(define-fun |cond.ILA.r3| ((|__START__| (_ BitVec 1))) Bool (not (= |__START__| #b0)))
(define-fun |value.ILA.r3| ((|__START__| (_ BitVec 1)) (|__auxvar7__recorder| (_ BitVec 8)) (|__ILA_SO_r3| (_ BitVec 8)) (|RTL__DOT__registers_3_| (_ BitVec 8))) (_ BitVec 1) (ite (not (= |__START__| #b0)) (ite (= |__ILA_SO_r3| |__auxvar7__recorder|) #b1 #b0) (ite (not (= #b1 #b0)) (ite (= |__ILA_SO_r3| |RTL__DOT__registers_3_|) #b1 #b0) #b1)))
(define-fun |cond.__auxvar4__recorder| ((|__START__| (_ BitVec 1)) (|__auxvar4__recorder_sn_condmet| (_ BitVec 1)) (|__STARTED__| (_ BitVec 1)) (|ppl_stage_wb| (_ BitVec 1))) Bool (and (and (or (not (= |__START__| #b0)) (not (= |__STARTED__| #b0))) (not (not (= |__auxvar4__recorder_sn_condmet| #b0)))) (not (= |ppl_stage_wb| #b0))))
(define-fun |value.__auxvar4__recorder| ((|RTL__DOT__registers_0_| (_ BitVec 8))) (_ BitVec 8) |RTL__DOT__registers_0_|)
(define-fun |cond.__auxvar5__recorder| ((|__START__| (_ BitVec 1)) (|__auxvar5__recorder_sn_condmet| (_ BitVec 1)) (|__STARTED__| (_ BitVec 1)) (|ppl_stage_wb| (_ BitVec 1))) Bool (and (and (or (not (= |__START__| #b0)) (not (= |__STARTED__| #b0))) (not (not (= |__auxvar5__recorder_sn_condmet| #b0)))) (not (= |ppl_stage_wb| #b0))))
(define-fun |value.__auxvar5__recorder| ((|RTL__DOT__registers_1_| (_ BitVec 8))) (_ BitVec 8) |RTL__DOT__registers_1_|)
(define-fun |cond.__auxvar6__recorder| ((|__START__| (_ BitVec 1)) (|__auxvar6__recorder_sn_condmet| (_ BitVec 1)) (|__STARTED__| (_ BitVec 1)) (|ppl_stage_wb| (_ BitVec 1))) Bool (and (and (or (not (= |__START__| #b0)) (not (= |__STARTED__| #b0))) (not (not (= |__auxvar6__recorder_sn_condmet| #b0)))) (not (= |ppl_stage_wb| #b0))))
(define-fun |value.__auxvar6__recorder| ((|RTL__DOT__registers_2_| (_ BitVec 8))) (_ BitVec 8) |RTL__DOT__registers_2_|)
(define-fun |cond.__auxvar7__recorder| ((|__START__| (_ BitVec 1)) (|__auxvar7__recorder_sn_condmet| (_ BitVec 1)) (|__STARTED__| (_ BitVec 1)) (|ppl_stage_wb| (_ BitVec 1))) Bool (and (and (or (not (= |__START__| #b0)) (not (= |__STARTED__| #b0))) (not (not (= |__auxvar7__recorder_sn_condmet| #b0)))) (not (= |ppl_stage_wb| #b0))))
(define-fun |value.__auxvar7__recorder| ((|RTL__DOT__registers_3_| (_ BitVec 8))) (_ BitVec 8) |RTL__DOT__registers_3_|)
